! XTB GOAT 
%PAL NPROCS 64 END

* xyz 0 1
   C        1.78446        1.78056       -0.00455
   C        0.84793        2.79986       -0.06859
   C       -0.50914        2.48422       -0.10461
   C       -0.97237        1.14670       -0.06972
   C        0.00764        0.11455       -0.03097
   C        1.36681        0.44291        0.00862
   C       -2.36162        0.80659       -0.08016
   C       -2.71538       -0.54830       -0.14606
   C       -1.74832       -1.55161       -0.11062
   C       -0.39364       -1.22037       -0.04269
   C        0.61321       -2.30612       -0.00580
   N        1.96513       -1.94224        0.01749
   C        2.39859       -0.61927        0.05827
   C        2.90168       -3.07857        0.04658
   C        4.40484       -2.79757        0.02815
   C        5.23705       -4.07978        0.01557
   C        6.72406       -3.75432        0.01462
   O        3.56896       -0.25575        0.13641
   O        0.22545       -3.47325        0.00877
   N       -3.32961        1.82935       -0.12736
   C       -4.75607        1.51182        0.00329
   C       -5.58971        2.81448        0.03791
   N       -7.05241        2.61470        0.07086
   C       -7.49005        1.91082        1.27714
   C       -7.73277        3.91010       -0.02082
   H        2.84390        2.02988        0.02243
   H        1.17055        3.83754       -0.09747
   H       -1.21080        3.31151       -0.18249
   H       -3.75443       -0.85813       -0.21120
   H       -2.06182       -2.59383       -0.14073
   H        2.65233       -3.71390       -0.81421
   H        2.65920       -3.66753        0.94126
   H        4.68149       -2.21828        0.91683
   H        4.66008       -2.20679       -0.85963
   H        4.99583       -4.67601       -0.87170
   H        5.00073       -4.68938        0.89513
   H        6.99566       -3.16782       -0.86935
   H        7.31758       -4.67325        0.00930
   H        6.99875       -3.17677        0.90361
   H       -3.05679        2.60408        0.47262
   H       -4.91523        0.94813        0.92889
   H       -5.08360        0.90421       -0.84845
   H       -5.33446        3.38834       -0.86355
   H       -5.26813        3.42468        0.89327
   H       -7.11063        0.88431        1.29308
   H       -8.58259        1.82557        1.29930
   H       -7.16674        2.41863        2.19275
   H       -7.45365        4.43003       -0.94400
   H       -7.49540        4.56159        0.82832
   H       -8.81934        3.77284       -0.05690
*

