%nprocshared=32
%mem=64GB
%chk=03BN-1_ethanol_m062x_m062x_m062x.chk
# td=(nstates=3,root=1) scrf=(smd,solvent=ethanol,correctedlr)
def2svp m062x

BN-1_ethanol_m062x_m062x_m062x

0 1
 C                  7.17737400    0.76544600    0.40988500
 H                  7.27751700    1.62655800    1.08611400
 H                  7.24402700    1.13048000   -0.62511000
 H                  8.03780600    0.08702800    0.59037500
 C                  1.14973300    0.57212700   -0.33019500
 C                 -0.25763400    0.38185800   -0.40662900
 C                 -0.80961600   -0.91804200   -0.53591700
 C                 -1.11461300    1.50947200   -0.34649400
 C                  2.01781500   -0.59192300   -0.38101000
 C                  1.64606800    1.89136300   -0.21039300
 H                  2.72005300    2.07963700   -0.16281000
 C                  1.42992600   -1.86371500   -0.50899800
 H                  2.06113800   -2.75002500   -0.54263400
 C                 -2.58472200    1.32873500   -0.41672100
 N                 -3.05768900    0.03605900   -0.59610400
 C                  0.04645300   -2.01107900   -0.58383000
 H                 -0.38373500   -3.00995900   -0.67931400
 C                  0.79276000    2.97761200   -0.15605000
 H                  1.19971800    3.98499700   -0.06431300
 N                  3.35257100   -0.44479500   -0.31537500
 H                  3.75641200    0.45390600   -0.06674300
 C                 -0.59738700    2.78604500   -0.22049300
 H                 -1.28137600    3.63486900   -0.17631100
 C                 -2.25782300   -1.11409300   -0.61472000
 O                 -3.36006100    2.26571500   -0.32902800
 O                 -2.78314200   -2.21365700   -0.69772700
 C                  4.29446600   -1.54098100   -0.27851100
 H                  4.15341000   -2.19942100   -1.14976100
 H                  4.13486700   -2.16196200    0.62117700
 N                  5.90195800    0.10995300    0.62681900
 C                  5.70969800   -0.97838700   -0.31794500
 H                  6.42425200   -1.81071000   -0.14557300
 H                  5.90510600   -0.58332400   -1.32689300
 C                  5.76680400   -0.32549600    2.00460700
 H                  4.75364000   -0.70645400    2.19794700
 H                  5.93537800    0.52602500    2.67890900
 H                  6.49363400   -1.12265100    2.26916300
 C                 -4.50901900   -0.14802500   -0.66881400
 H                 -4.69605500   -1.02363600   -1.30084100
 H                 -4.92716800    0.73633400   -1.16359700
 C                 -5.13987300   -0.33830300    0.70512100
 H                 -4.68042400   -1.21511400    1.19131500
 H                 -4.90845000    0.53998300    1.33075000
 C                 -6.65044500   -0.52774700    0.62072500
 H                 -7.09692300    0.34627300    0.11751100
 H                 -6.87044600   -1.39820500   -0.01984900
 C                 -7.29450800   -0.71889300    1.98782300
 H                 -8.38275400   -0.85436400    1.90601200
 H                 -6.88283800   -1.60384700    2.49731400
 H                 -7.11177900    0.15276800    2.63515100

