%nprocshared=32
%mem=64GB
%chk=04BN-1_ethanol_m062x_m062x_m062x.chk
# opt freq td=(nstates=3,root=1) scrf=(smd,solvent=ethanol)
pop=(full,orbitals=2,threshorbitals=1) def2svp m062x

04BN-1_ethanol_m062x_m062x_m062x

0 1
 C                  7.04647700    0.91271600    0.18050800
 H                  7.12988600    1.79970700    0.82444600
 H                  6.97242200    1.24948700   -0.86327200
 H                  7.98035100    0.32262600    0.28727300
 C                  1.16086100    0.53838300   -0.25513800
 C                 -0.25209700    0.36105100   -0.35822500
 C                 -0.80123800   -0.93723200   -0.47825300
 C                 -1.11173700    1.49087400   -0.33709700
 C                  1.99079900   -0.65524200   -0.28247100
 C                  1.68456000    1.83490200   -0.13746400
 H                  2.75697200    2.01772300   -0.06672500
 C                  1.38913100   -1.95451500   -0.40186200
 H                  2.03102900   -2.83512900   -0.40540100
 C                 -2.54609700    1.32843400   -0.44408400
 N                 -3.03478400    0.01908000   -0.59936900
 C                  0.02890900   -2.09580100   -0.49536300
 H                 -0.43398200   -3.07770600   -0.58071800
 C                  0.81033000    2.95057600   -0.11146800
 H                  1.23721200    3.95054300   -0.01504300
 N                  3.31427700   -0.53217400   -0.19352300
 H                  3.72719400    0.38475400   -0.00933800
 C                 -0.55543400    2.79460100   -0.20639500
 H                 -1.22617800    3.65356900   -0.18712500
 C                 -2.25956400   -1.12037100   -0.57710600
 O                 -3.34382600    2.26986300   -0.40876200
 O                 -2.76318400   -2.23991800   -0.64200300
 C                  4.29131800   -1.59984500   -0.19787600
 H                  4.10360300   -2.28797200   -1.03541400
 H                  4.20943400   -2.18872700    0.73265700
 N                  5.86682800    0.14899000    0.54313400
 C                  5.67696100   -0.98162500   -0.34964100
 H                  6.43518000   -1.77621300   -0.19377000
 H                  5.78840900   -0.61772000   -1.38214500
 C                  5.91099200   -0.24947100    1.93906600
 H                  4.96973700   -0.73142100    2.24012300
 H                  6.04619900    0.63889700    2.57178000
 H                  6.74359100   -0.95293600    2.14877500
 C                 -4.48468900   -0.15286100   -0.70209900
 H                 -4.66722200   -1.04558600   -1.31199100
 H                 -4.88116700    0.72191600   -1.22975100
 C                 -5.14844400   -0.29553600    0.66212800
 H                 -4.70929500   -1.16122500    1.18592100
 H                 -4.92021200    0.60021100    1.26359500
 C                 -6.65883300   -0.47146000    0.55081400
 H                 -7.08367200    0.38936400    0.00768600
 H                 -6.87531900   -1.36125600   -0.06391900
 C                 -7.33515200   -0.60713200    1.90894600
 H                 -8.42290600   -0.73332600    1.80764100
 H                 -6.94539500   -1.47794100    2.45850900
 H                 -7.15634200    0.28486000    2.52909700

