%nprocshared=32
%mem=64GB
%chk=04BDP-NH2_ethanol_wb97xd_b3lyp_wb97xd.chk
# opt=modredundant freq td=(nstates=3,root=1) b3lyp
scrf=(smd,solvent=ethanol) pop=(full,orbitals=2,threshorbitals=1) def2svp

04BDP-NH2_ethanol_wb97xd_wb97xd_wb97xd

0 1
 C                 -0.61957300    1.23066100   -0.02482000
 C                 -0.61939600   -1.23053000   -0.02740500
 C                  0.09279000    0.00010500   -0.01529100
 C                 -0.16992400    2.57071500   -0.04871800
 C                 -1.32188900    3.39193500   -0.06426700
 C                 -2.42729400    2.54615300   -0.04885600
 H                 -1.35180500    4.48103100   -0.08753900
 C                 -2.42690000   -2.54628800   -0.05318800
 C                 -0.16952800   -2.57048400   -0.05279300
 C                 -1.32135700   -3.39186800   -0.06958800
 H                 -1.35109100   -4.48094600   -0.09391000
 N                 -2.00901300    1.24129200   -0.02437400
 N                 -2.00883700   -1.24138100   -0.02725700
 B                 -2.91709200   -0.00019400    0.05014300
 F                 -3.65520500   -0.00163700    1.25692600
 F                 -3.84817300    0.00098400   -1.01061000
 C                  1.57478300    0.00014900   -0.00343400
 C                  2.31203900    0.00655300   -1.22156100
 C                  2.28894300   -0.00598100    1.22845600
 C                  3.68621900    0.00732600   -1.22311700
 H                  1.76762300    0.01149500   -2.16754600
 C                  3.66260200   -0.00690700    1.25577300
 H                  1.72669100   -0.01068500    2.16394800
 C                  4.39648900    0.00002200    0.02325500
 H                  4.25468900    0.01322600   -2.15516700
 H                  4.21423400   -0.01263700    2.19796100
 H                  0.87126600   -2.89013200   -0.06333700
 H                 -3.48798500   -2.79231400   -0.05720900
 H                  0.87081200    2.89053600   -0.05965600
 H                 -3.48842100    2.79199200   -0.05314400
 N                  5.72634100   -0.00035100    0.03685800
 H                  6.24198800   -0.00574500    0.91560900
 H                  6.26039400    0.00471900   -0.83083000

D 2 3 17 18 F
D 1 3 17 19 F

