%nprocshared=32
%mem=64GB
%chk=04BDP-NH2_ethanol_wb97xd_wb97xd_wb97xd.chk
# wb97xd/def2svp TD(NStates=3, Root=1) Opt freq pop=(full, orbitals=2, threshorbitals=1) scrf=(SMD, solvent=ethanol)

04BDP-NH2_ethanol_wb97xd_wb97xd_wb97xd

0 1
 C                  0.63162700   -1.20858100   -0.10166100
 C                  0.63430700    1.21560700    0.05410500
 C                 -0.10434900    0.00375500   -0.01275500
 C                  0.18258500   -2.55848000   -0.26911600
 C                  1.31251900   -3.35730100   -0.33076300
 C                  2.43321500   -2.50228100   -0.21049000
 H                  1.35646200   -4.43728000   -0.45817100
 C                  2.44164000    2.50443100    0.12329700
 C                  0.19070500    2.57416300    0.16212900
 C                  1.32386700    3.36922000    0.19771900
 H                  1.37232600    4.45369700    0.27575300
 N                  2.02562100   -1.22853600   -0.07418700
 N                  2.02926000    1.22787700    0.04014200
 B                  2.95586600   -0.00540000    0.05042600
 F                  3.68536800   -0.05767000    1.24366600
 F                  3.85023500    0.04043000   -1.02229900
 C                 -1.57742700    0.00037800   -0.00194900
 C                 -2.32015700    0.82712900   -0.86283700
 C                 -2.29637200   -0.83416300    0.87179800
 C                 -3.70837400    0.82165400   -0.85592900
 H                 -1.79870600    1.47791600   -1.56892900
 C                 -3.68432100   -0.84589100    0.88767200
 H                 -1.75461600   -1.47578300    1.57113000
 C                 -4.42362600   -0.01854300    0.01975600
 H                 -4.25850600    1.46999400   -1.54263100
 H                 -4.21521300   -1.49772200    1.58615600
 H                 -0.84719200    2.89381000    0.21363500
 H                  3.50233000    2.75565400    0.13741500
 H                 -0.85672500   -2.86843100   -0.34742600
 H                  3.49283900   -2.75763300   -0.22539000
 N                 -5.79705200   -0.06406300   -0.00496400
 H                 -6.25229800   -0.43902100    0.81945200
 H                 -6.26948500    0.73877400   -0.40458900


































































































































































































































































