%nprocshared=32
%mem=64GB
%chk=04BDP-NH2_ethanol_m062x_m062x_m062x.chk
# opt=modredundant freq td=(nstates=3,root=1) scrf=(smd,solvent=ethanol)
pop=(full,orbitals=2,threshorbitals=1) def2svp m062x

04BDP-NH2_ethanol_m062x_m062x_m062x

0 1
 C                  0.60397700   -1.20487700    0.06819700
 C                  0.65356400    1.22955800    0.06560800
 C                 -0.09343300    0.02729200    0.08520600
 C                  0.11780400   -2.54333600    0.08879900
 C                  1.22950200   -3.37707700    0.03719500
 C                  2.37315500   -2.54030200   -0.01672800
 H                  1.25915700   -4.46438300    0.04474400
 C                  2.47531000    2.49223800   -0.02149300
 C                  0.22188100    2.58654300    0.08149600
 C                  1.36620600    3.37460600    0.02881400
 H                  1.43979400    4.45980600    0.03306500
 N                  2.00023800   -1.25305300   -0.01132600
 N                  2.05089000    1.22098800   -0.01230000
 B                  2.96812900   -0.03549100   -0.04699500
 F                  3.80438000   -0.05278700    1.05893400
 F                  3.72408700   -0.05089900   -1.20886200
 C                 -1.57454300    0.05229400    0.04660000
 C                 -2.25753100    0.02542400   -1.18229500
 C                 -2.33912400    0.03988000    1.22512600
 C                 -3.64255700    0.01153100   -1.23958500
 H                 -1.68377500    0.01900300   -2.11171500
 C                 -3.72437200    0.02590800    1.18574100
 H                 -1.83188500    0.04452700    2.19239100
 C                 -4.41051100    0.01374500   -0.05256800
 H                 -4.15177400   -0.00418000   -2.20483100
 H                 -4.29848500    0.02134000    2.11396500
 H                 -0.81983500    2.89529300    0.13793800
 H                  3.53612100    2.74284400   -0.05468000
 H                 -0.93554100   -2.80949000    0.14715700
 H                  3.42297100   -2.83343700   -0.04956200
 N                 -5.76297000   -0.00046300   -0.09625100
 H                 -6.30176200   -0.00140700    0.76017400
 H                 -6.24492400   -0.01215900   -0.98586100

D 2 3 17 18 F
D 1 3 17 19 F

