%nprocshared=32
%mem=64GB
%chk=06BDP-NH2_ethanol_m062x_m062x_m062x.chk
# td=(nstates=3,root=1)
scrf=(smd,solvent=ethanol,correctedlr,noneq=save) def2svp
m062x

BDP-NH2_ethanol_m062x_m062x_m062x

0 1
 C                  0.61697800    1.23323500    0.01227700
 C                  0.61592900   -1.23271200    0.01483400
 C                 -0.10176600    0.00056000    0.00633500
 C                  0.16158600    2.56131100    0.02570400
 C                  1.31326600    3.38417500    0.03420200
 C                  2.41347000    2.53928400    0.02544500
 H                  1.34368900    4.47141100    0.04684700
 C                  2.41130800   -2.54027200    0.02959800
 C                  0.15940400   -2.56038200    0.02999700
 C                  1.31038700   -3.38421400    0.03953400
 H                  1.33988500   -4.47146000    0.05341900
 N                  1.99504800    1.24130800    0.01221000
 N                  1.99399100   -1.24195600    0.01470900
 B                  2.90915600   -0.00075000   -0.02742400
 F                  3.68260600   -0.00227400   -1.19855500
 F                  3.78646200   -0.00000600    1.06654000
 C                 -1.55811700    0.00107000    0.00069800
 C                 -2.29387100    0.00704500    1.23028500
 C                 -2.28275000   -0.00553900   -1.23549000
 C                 -3.65608000    0.00730900    1.23755800
 H                 -1.73832400    0.01187100    2.16905900
 C                 -3.64471200   -0.00653600   -1.25488200
 H                 -1.71874500   -0.01025800   -2.16918600
 C                 -4.37318500    0.00025100   -0.01198700
 H                 -4.22537700    0.01251700    2.16768900
 H                 -4.20613700   -0.01223500   -2.18980600
 H                 -0.88388000   -2.87026200    0.03586400
 H                  3.47284100   -2.78209600    0.03156900
 H                 -0.88143100    2.87208900    0.03145100
 H                  3.47520800    2.78020400    0.02748100
 N                 -5.68584700   -0.00003000   -0.01853700
 H                 -6.20477500   -0.00503900   -0.89490300
 H                 -6.21376900    0.00475500    0.85243500

