%nprocshared=32
%mem=64GB
%chk=04BDP-NH2_ethanol_wb97xd_wb97xd_wb97xd.chk
# opt=modredundant freq td=(nstates=3,root=2) wb97xd
scrf=(smd,solvent=ethanol) pop=(full,orbitals=2,threshorbitals=1) def2svp

04BDP-NH2_ethanol_wb97xd_wb97xd_wb97xd

0 1
 C                 -0.63640500   -1.21100100   -0.00396400
 C                 -0.63473900    1.21036300   -0.00234800
 C                  0.09422400   -0.00083500   -0.00623100
 C                 -0.17446900   -2.56554900   -0.00392400
 C                 -1.30035300   -3.37250300    0.00085200
 C                 -2.42946300   -2.51538500    0.00399000
 H                 -1.33908600   -4.46069600    0.00201900
 C                 -2.42605100    2.51714200    0.00726500
 C                 -0.17098900    2.56430400   -0.00023600
 C                 -1.29578300    3.37274000    0.00544100
 H                 -1.33302800    4.46098500    0.00818200
 N                 -2.03204100   -1.23232800    0.00166200
 N                 -2.03035700    1.23356800    0.00308600
 B                 -2.96241200    0.00125800   -0.00091400
 F                 -3.77102700    0.00247300   -1.14161100
 F                 -3.77813300    0.00110200    1.13428700
 C                  1.57765300   -0.00178400   -0.00396000
 C                  2.29806700   -0.00720700    1.19842900
 C                  2.30317600    0.00415200   -1.20322500
 C                  3.68778000   -0.00673200    1.20881000
 H                  1.75743600   -0.01136400    2.14892300
 C                  3.69288400    0.00462200   -1.20758500
 H                  1.76660700    0.00890600   -2.15601200
 C                  4.41959900   -0.00098800    0.00224000
 H                  4.22681300   -0.01075700    2.16003600
 H                  4.23598000    0.00942500   -2.15648000
 H                  0.87529000    2.86384200   -0.00261900
 H                 -3.48368600    2.78303900    0.01116800
 H                  0.87140800   -2.86649000   -0.00698000
 H                 -3.48746300   -2.77984600    0.00761600
 N                  5.78151500   -0.00420400    0.00507000
 H                  6.30165000    0.02310400   -0.86056100
 H                  6.29799000    0.01410100    0.87314500

D 2 3 17 18 F
D 1 3 17 19 F

