%nprocshared=32
%mem=64GB
%chk=06BDP-NH2_ethanol_wb97xd_wb97xd_wb97xd.chk
# td=(nstates=3,root=1) wb97xd
scrf=(smd,solvent=ethanol,correctedlr,noneq=save) def2svp

BDP-NH2_ethanol_wb97xd_wb97xd_wb97xd

0 1
 C                  0.61971200   -1.23456600   -0.02244000
 C                  0.61300600    1.23153700   -0.02490300
 C                 -0.09993700   -0.00344700   -0.01601700
 C                  0.16386300   -2.55957300   -0.04192100
 C                  1.31710300   -3.38380800   -0.04937900
 C                  2.41478200   -2.54031200   -0.03387300
 H                  1.34719000   -4.47227600   -0.06653600
 C                  2.40091100    2.54704700   -0.03796500
 C                  0.14992500    2.55403700   -0.04625600
 C                  1.29866200    3.38452100   -0.05481200
 H                  1.32282400    4.47311300   -0.07337600
 N                  1.99801800   -1.24012200   -0.01728500
 N                  1.99126800    1.24462100   -0.01966400
 B                  2.90197600    0.00477700    0.03998000
 F                  3.65769100    0.00792000    1.23177300
 F                  3.80775900    0.00623100   -1.03934300
 C                 -1.55261900   -0.00664100   -0.00521100
 C                 -2.29548000   -0.01183200   -1.23105300
 C                 -2.27317800    0.00071100    1.23401600
 C                 -3.65620500   -0.01002900   -1.23029800
 H                 -1.74507700   -0.01731200   -2.17325100
 C                 -3.63349300    0.00357800    1.25780400
 H                 -1.70567100    0.00464000    2.16601700
 C                 -4.36724700   -0.00163700    0.02046700
 H                 -4.22731800   -0.01422700   -2.16011100
 H                 -4.18851000    0.00987800    2.19734300
 H                 -0.89524100    2.86032100   -0.05843500
 H                  3.46112000    2.79662300   -0.03734300
 H                 -0.87960400   -2.87159600   -0.05382300
 H                  3.47633600   -2.78410400   -0.03323700
 N                 -5.68218800    0.00137800    0.03333700
 H                 -6.19791300    0.00742300    0.90994600
 H                 -6.21558300   -0.00237500   -0.83263100

