%nprocshared=32
%mem=64GB
%chk=00BDP-NH2_ethanol_m062x_m062x_m062x.chk
# opt freq scrf=(smd,solvent=ethanol) def2tzvp m062x

00BDP-NH2_ethanol_m062x_m062x_m062x

0 1
 C                  0.62198100   -1.21687600   -0.05820000
 C                  0.62572100    1.21878500    0.04241800
 C                 -0.09601400    0.00191700   -0.00413800
 C                  0.17274900   -2.54830000   -0.23217300
 C                  1.30309800   -3.35995800   -0.28161400
 C                  2.41395400   -2.50922500   -0.15757400
 H                  1.33745300   -4.43896000   -0.40899800
 C                  2.42232700    2.50671600    0.11302800
 C                  0.18151400    2.55468300    0.19371800
 C                  1.31471200    3.36334400    0.22418800
 H                  1.35280700    4.44462600    0.32918700
 N                  2.00772300   -1.24000900   -0.02674400
 N                  2.01166000    1.23657400    0.00715800
 B                  2.94360300   -0.00389000    0.02107600
 F                  3.70593200   -0.01227400    1.18420200
 F                  3.78435300    0.00182900   -1.08570800
 C                 -1.55705800    0.00249100   -0.00024000
 C                 -2.29099900    0.89670300   -0.80820200
 C                 -2.28488600   -0.89348600    0.81138500
 C                 -3.67320600    0.89122900   -0.81753200
 H                 -1.76031600    1.57540700   -1.47815900
 C                 -3.66701000   -0.88884700    0.83054100
 H                 -1.74870200   -1.57474200    1.47438100
 C                 -4.39956000    0.00206100    0.01018900
 H                 -4.21903700    1.57105100   -1.47469700
 H                 -4.20790700   -1.57075000    1.48963500
 H                 -0.85343200    2.87359700    0.28984600
 H                  3.48414200    2.75179800    0.12137800
 H                 -0.86370000   -2.86091900   -0.33334700
 H                  3.47486000   -2.75777200   -0.17190300
 N                 -5.75147500    0.01532500    0.02952300
 H                 -6.26119400   -0.69793700    0.53564900
 H                 -6.26486000    0.58739400   -0.62911700

