%chk=CT_opt_B3LYP.chk
%nprocshared=16
%mem=64GB
# TD=(NStates=5, Root=3) OPT FREQ B3LYP/def2SVP SCRF=(SMD, solvent=ethanol)

CT_opt_B3LYP

0 1
 O                 -2.83359400   -2.41145600   -0.87702200
 C                  0.99364800    0.55094300   -0.45790500
 C                  1.88617000   -0.57716900   -0.44840500
 O                 -3.60323000    2.10320000   -0.60233900
 N                  3.25922500   -0.32839900   -0.33016200
 H                  3.45355100    0.48223700    0.25308100
 C                 -0.91548300   -1.02111300   -0.67107200
 N                 -3.18866700   -0.15586700   -0.72360000
 C                 -0.42218000    0.30926600   -0.55181900
 C                  1.36380900   -1.88002300   -0.57639500
 H                  2.03350300   -2.74088400   -0.56966300
 C                 -1.33174400    1.41065000   -0.52951500
 C                 -0.83167400    2.73922300   -0.42753700
 H                 -1.54111800    3.56785200   -0.41049500
 C                  0.53621800    2.96562300   -0.36511400
 H                  0.91389400    3.99086000   -0.30654000
 C                 -2.75800900    1.18282200   -0.61613200
 C                  1.45011200    1.89871800   -0.38598500
 H                  2.51801300    2.11910800   -0.37379400
 C                 -2.34355000   -1.26994000   -0.76498200
 C                  4.20050500   -1.41251800   -0.15086900
 H                  4.06069700   -2.15861500   -0.94604100
 H                  4.07469900   -1.94708800    0.81179300
 C                 -4.63326900   -0.41151500   -0.82648400
 H                 -4.77413800   -1.19659200   -1.58167000
 H                 -5.09344700    0.51353300   -1.19298800
 C                 -0.00481700   -2.10016000   -0.69614300
 H                 -0.39273200   -3.11558500   -0.79275500
 C                  5.65520000   -0.94112900   -0.29899700
 C                 -5.29862900   -0.85341900    0.48290800
 H                 -6.35414800   -1.08095200    0.24520400
 H                 -4.84762100   -1.80626600    0.80946900
 C                 -5.24827800    0.15922400    1.63076400
 H                 -5.68506900    1.11704500    1.29709900
 H                 -4.19560500    0.37899600    1.88234300
 C                 -5.97218400   -0.32898400    2.88557400
 H                 -5.53467200   -1.27001900    3.26175600
 H                 -7.04093200   -0.52040500    2.68636400
 H                 -5.91447300    0.41222800    3.70008400
 H                  6.31075700   -1.82286300   -0.22913000
 N                  6.07168300   -0.01691800    0.73945600
 H                  5.80228700   -0.45522200   -1.27106600
 C                  6.13446100   -0.43909200    2.11469100
 H                  6.03718100   -1.52688900    2.19412800
 H                  7.08648300   -0.10140700    2.54995000
 H                  5.31843100    0.05393000    2.67119400
 C                  6.36420900    1.35167800    0.39928800
 H                  5.50446100    1.77930300   -0.14058900
 H                  6.58573800    1.93430200    1.29976000
 H                  7.22607900    1.36919800   -0.28769500

