%oldchk=CT_S1_cLR.chk
%chk=CT_S0_cLR.chk
%nprocshared=16
%mem=64GB
# wB97XD/def2SVP SCRF=(SMD, solvent=ethanol, Noneq=Read) Geom=Check Guess=Read

CT_S0_cLR

0 1
 
