%chk=gs_opt.chk
%nprocshared=16
%mem=64GB
# OPT FREQ wB97XD/def2SVP SCRF=(SMD, solvent=ethanol)

gs_opt

0 1
 O                 -2.85262200   -2.43164300   -0.73702500
 C                  0.99272300    0.48398100   -0.49067900
 C                  1.89220500   -0.65502800   -0.42602200
 O                 -3.55138700    2.05612900   -0.75869800
 N                  3.22012400   -0.46283000   -0.33228600
 H                  3.58668400    0.45891600   -0.10833600
 C                 -0.92240000   -1.07069900   -0.61472700
 N                 -3.19937900   -0.18914600   -0.73792900
 C                 -0.40713800    0.24995800   -0.57849100
 C                  1.34139400   -1.94768300   -0.47460800
 H                  1.99516700   -2.81836000   -0.43017200
 C                 -1.29582400    1.35284400   -0.63117600
 C                 -0.81126700    2.64924300   -0.60512800
 H                 -1.51467300    3.48285700   -0.64658600
 C                  0.56993900    2.88411200   -0.53059600
 H                  0.94850800    3.90769700   -0.51824000
 C                 -2.75770900    1.12864300   -0.71350000
 C                  1.45126600    1.82139500   -0.47564600
 H                  2.51952300    2.04179300   -0.42747200
 C                 -2.36103800   -1.31132800   -0.69951800
 C                 -4.64365900   -0.43732300   -0.79935600
 H                 -4.80467400   -1.26829900   -1.49732000
 H                 -5.10453500    0.46169000   -1.22384500
 C                 -0.03455200   -2.13877300   -0.56737600
 H                 -0.43261500   -3.15557300   -0.59698100
 C                 -5.26300400   -0.76908900    0.55585500
 H                 -6.33470100   -0.96621200    0.38192400
 H                 -4.83234500   -1.71356200    0.92813600
 C                 -5.10995500    0.31730800    1.61714200
 H                 -5.53380500    1.26280600    1.23860300
 H                 -4.03746000    0.51131800    1.79216300
 C                 -5.77274400   -0.05462300    2.93783700
 H                 -5.34343700   -0.98174100    3.35182100
 H                 -6.85508300   -0.21968500    2.80951200
 H                 -5.64303800    0.73843500    3.69057600
 C                  4.19757700   -1.51021800   -0.15074300
 H                  4.00869800   -2.06397600    0.78730700
 H                  4.14085100   -2.24525300   -0.96957900
 C                  5.58916800   -0.88636500   -0.15330100
 H                  6.32716100   -1.66748500    0.12844800
 H                  5.82968800   -0.57133600   -1.18099000
 N                  5.67311300    0.28855900    0.69852000
 C                  6.87367100    1.05714500    0.43766100
 H                  6.86913500    1.98025900    1.03714400
 H                  7.80393700    0.49967700    0.68205500
 H                  6.92054600    1.34256300   -0.62424300
 C                  5.53527500   -0.02433300    2.10788700
 H                  6.33534300   -0.70281700    2.47605200
 H                  5.57702800    0.90110000    2.70152000
 H                  4.56561000   -0.50178000    2.31307000

