%chk=LE_opt.chk
%nprocshared=16
%mem=64GB
# TD=(NStates=4, Root=1) OPT FREQ wB97XD/def2SVP SCRF=(SMD, solvent=ethanol)

LE_opt

0 1
 O                 -2.84806700   -2.42333000   -0.73991000
 C                  1.00455500    0.45403300   -0.38858700
 C                  1.85853800   -0.71787800   -0.30577300
 O                 -3.51815600    2.08812400   -0.81954900
 N                  3.17628500   -0.55749200   -0.17376800
 H                  3.56654800    0.37622300   -0.02030800
 C                 -0.92328600   -1.06912100   -0.57170300
 N                 -3.17859000   -0.17276800   -0.76867300
 C                 -0.40258300    0.24207000   -0.51972300
 C                  1.28575400   -2.03113000   -0.36575600
 H                  1.94231600   -2.89896600   -0.29756900
 C                 -1.28480300    1.35199900   -0.60191300
 C                 -0.75352800    2.67228900   -0.55312800
 H                 -1.43707400    3.51999200   -0.61445900
 C                  0.60440300    2.86248300   -0.42951900
 H                  1.01008400    3.87634600   -0.39262600
 C                 -2.71217200    1.15492600   -0.73542200
 C                  1.49874700    1.76571000   -0.34899300
 H                  2.56584700    1.97412900   -0.25999500
 C                 -2.37186800   -1.28850800   -0.69898100
 C                 -4.62329200   -0.39979700   -0.86195200
 H                 -4.78477300   -1.22341700   -1.56954400
 H                 -5.05919500    0.51188900   -1.28500000
 C                 -0.06562500   -2.20751000   -0.49593600
 H                 -0.50227300   -3.20487200   -0.53786300
 C                 -5.27267500   -0.73247300    0.47954700
 H                 -6.34722700   -0.89531000    0.28824200
 H                 -4.87547600   -1.69411400    0.84526700
 C                 -5.10125500    0.33475400    1.55745300
 H                 -5.48590700    1.29897700    1.18469300
 H                 -4.02563100    0.49022900    1.75083500
 C                 -5.79704900   -0.03097200    2.86278100
 H                 -5.40636200   -0.97756800    3.27099200
 H                 -6.88232500   -0.15693100    2.71602900
 H                 -5.65205400    0.74745100    3.62794900
 C                  4.18237400   -1.58433300   -0.04007400
 H                  4.07468000   -2.09550100    0.93376800
 H                  4.06695700   -2.35193000   -0.82064200
 C                  5.55224200   -0.92343400   -0.17827800
 H                  6.33197900   -1.66120700    0.10238600
 H                  5.71114100   -0.66944800   -1.23754200
 N                  5.63858400    0.30619400    0.59117900
 C                  6.73555200    1.14799400    0.15435700
 H                  6.71893700    2.10112700    0.70416200
 H                  7.72897300    0.67874400    0.31911800
 H                  6.63962000    1.37280100   -0.91854800
 C                  5.67544400    0.07648400    2.02370300
 H                  6.57080300   -0.50052200    2.33918700
 H                  5.68664600    1.03945000    2.55555900
 H                  4.78276200   -0.47298100    2.35779200

