%oldchk=LE_S1_cLR.chk
%chk=LE_S0_cLR.chk
%nprocshared=16
%mem=64GB
# wB97XD/def2SVP SCRF=(SMD, solvent=ethanol, Noneq=Read) Geom=Check Guess=Read

LE_S0_cLR

0 1

