%nprocshared=32
%mem=64GB
%chk=04BDP-NH2_ethanol_wb97xd_b3lyp_wb97xd.chk
# b3lyp/def2svp TD(NStates=3, Root=1) opt=modredundant freq pop=(full, orbitals=2, threshorbitals=1) scrf=(SMD, solvent=ethanol)

04BDP-NH2_ethanol_wb97xd_wb97xd_wb97xd

0 1
 C                 -0.61880800    1.23017000   -0.02528700
 C                 -0.61848700   -1.22997500   -0.02783800
 C                  0.09367000    0.00017800   -0.01574800
 C                 -0.16880600    2.56957800   -0.04907200
 C                 -1.32075200    3.39144600   -0.06411100
 C                 -2.42656100    2.54652300   -0.04853700
 H                 -1.35017700    4.48014700   -0.08702000
 C                 -2.42587700   -2.54679300   -0.05299800
 C                 -0.16811600   -2.56923200   -0.05315000
 C                 -1.31983400   -3.39139300   -0.06948900
 H                 -1.34895600   -4.48007800   -0.09350200
 N                 -2.00870200    1.24095300   -0.02488500
 N                 -2.00838000   -1.24113300   -0.02780000
 B                 -2.91695900   -0.00029700    0.05031700
 F                 -3.65584700   -0.00180800    1.25673800
 F                 -3.84991400    0.00084000   -1.00891100
 C                  1.57488600    0.00030600   -0.00375900
 C                  2.31174300    0.00666400   -1.22190200
 C                  2.28822100   -0.00583900    1.22837400
 C                  3.68568200    0.00729400   -1.22292500
 H                  1.76760500    0.01158500   -2.16765800
 C                  3.66162700   -0.00671700    1.25572200
 H                  1.72590400   -0.01049100    2.16343400
 C                  4.39472300    0.00002700    0.02342100
 H                  4.25584500    0.01302000   -2.15354600
 H                  4.21427800   -0.01231000    2.19691700
 H                  0.87293600   -2.88701000   -0.06378400
 H                 -3.48644000   -2.79372800   -0.05672600
 H                  0.87215200    2.88764900   -0.06011100
 H                 -3.48719400    2.79315600   -0.05241900
 N                  5.72387700   -0.00038400    0.03709400
 H                  6.23732700   -0.00576800    0.91682100
 H                  6.25593700    0.00454100   -0.83151300

D 2 3 17 18 F
D 1 3 17 19 F



































































































































































































































































