%nprocshared=32
%mem=64GB
%oldchk=04BDP-NH2_ethanol_wb97xd_b3lyp_wb97xd.chk
%chk=05BDP-NH2_ethanol_wb97xd_wb97xd_wb97xd.chk
# wb97xd/def2tzvp TD=(NStates=3, Root=1) geom=check scrf=(SMD, solvent=ethanol) density pop=(full, orbitals=2, threshorbitals=1)

BDP-NH2_ethanol_wb97xd_wb97xd_wb97xd

0 1


