%nprocshared=32
%mem=64GB
%oldchk=00BDP-NH2_ethanol_wb97xd_wb97xd_wb97xd.chk
%chk=01BDP-NH2_ethanol_wb97xd_wb97xd_wb97xd.chk
# wb97xd/def2tzvp geom=check pop=(full, orbitals=2, threshorbitals=1) scrf=(SMD, solvent=ethanol)

BDP-NH2_ethanol_wb97xd_wb97xd_wb97xd

0 1






