%nprocshared=32
%mem=64GB
%chk=03BDP-NH2_ethanol_wb97xd_wb97xd_wb97xd.chk
# td=(nstates=3,root=2) wb97xd scrf=(smd,solvent=ethanol,correctedlr)
def2svp

BDP-NH2_ethanol_wb97xd_wb97xd_wb97xd

0 1
 C                  0.62395000   -1.21432500   -0.06559400
 C                  0.62755600    1.21627400    0.04766200
 C                 -0.09136700    0.00191200   -0.00522300
 C                  0.17102100   -2.54347600   -0.23227100
 C                  1.29881700   -3.35818500   -0.28286300
 C                  2.41082300   -2.51188000   -0.16516600
 H                  1.32948500   -4.43892100   -0.40575500
 C                  2.41894600    2.50968900    0.11657100
 C                  0.17949100    2.54990500    0.19038300
 C                  1.31004700    3.36178000    0.22074300
 H                  1.34438500    4.44484600    0.31986700
 N                  2.01116900   -1.23944500   -0.03789900
 N                  2.01498300    1.23622800    0.01578300
 B                  2.94110800   -0.00403600    0.02260800
 F                  3.70480200   -0.02447900    1.19259800
 F                  3.79160700    0.01326000   -1.08445100
 C                 -1.55714500    0.00249700   -0.00088700
 C                 -2.28973800    0.85161200   -0.85323600
 C                 -2.28239300   -0.84866600    0.85572900
 C                 -3.67357200    0.84619600   -0.85996000
 H                 -1.76028600    1.49870500   -1.55594000
 C                 -3.66610100   -0.84315000    0.87474200
 H                 -1.74661800   -1.49986400    1.54979200
 C                 -4.39871600    0.00347300    0.01246200
 H                 -4.21747300    1.49518600   -1.55089200
 H                 -4.20383800   -1.49478200    1.56797600
 H                 -0.85751400    2.86686300    0.27751600
 H                  3.47898500    2.76265600    0.12508400
 H                 -0.86744700   -2.85429400   -0.32456900
 H                  3.46997300   -2.76814300   -0.17989800
 N                 -5.75725500    0.02839800    0.04283000
 H                 -6.25493300   -0.70933300    0.52550400
 H                 -6.25993700    0.50002800   -0.69860000

