%nprocshared=32
%mem=64GB
%chk=06BDP-NH2_ethanol_wb97xd_wb97xd_wb97xd.chk
# td=(nstates=3,root=1) wb97xd
scrf=(smd,solvent=ethanol,correctedlr,noneq=save) def2svp

BDP-NH2_ethanol_wb97xd_wb97xd_wb97xd

0 1
 C                  0.62874700   -1.20769900   -0.10032700
 C                  0.63767500    1.21777700    0.04425300
 C                 -0.10440600    0.00706500   -0.01451500
 C                  0.17576500   -2.55591500   -0.26803300
 C                  1.30366100   -3.35798000   -0.32817900
 C                  2.42685400   -2.50590400   -0.20668800
 H                  1.34443000   -4.43845400   -0.45583300
 C                  2.44867200    2.50159400    0.10153800
 C                  0.19744800    2.57839500    0.13595000
 C                  1.33294100    3.37061400    0.16382500
 H                  1.38409800    4.45620900    0.22909400
 N                  2.02258800   -1.23160500   -0.07130100
 N                  2.03271700    1.22592700    0.03386300
 B                  2.95466800   -0.01080700    0.06253900
 F                  3.66491300   -0.06140500    1.26753500
 F                  3.86375200    0.02865000   -0.99751700
 C                 -1.57761000    0.00708000   -0.00244700
 C                 -2.31985800    0.82064000   -0.87632900
 C                 -2.29758600   -0.81177200    0.88531900
 C                 -3.70800300    0.81846700   -0.86809400
 H                 -1.79805600    1.45760200   -1.59510800
 C                 -3.68547700   -0.82039400    0.90337200
 H                 -1.75664900   -1.44311200    1.59505100
 C                 -4.42489700   -0.00519000    0.02299000
 H                 -4.25678500    1.45580800   -1.56661000
 H                 -4.21615600   -1.46046100    1.61334300
 H                 -0.83974100    2.90195000    0.18263100
 H                  3.51042900    2.74964000    0.11455500
 H                 -0.86449800   -2.86292600   -0.34928800
 H                  3.48616600   -2.76386800   -0.21982600
 N                 -5.79657700   -0.04576400    0.00258400
 H                 -6.26159800   -0.42214800    0.82070000
 H                 -6.27761100    0.73801700   -0.42339900

