%nprocshared=32
%mem=64GB
%chk=06BDP-NH2_ethanol_m062x_m062x_m062x.chk
# td=(nstates=3,root=1) scrf=(smd,solvent=ethanol,correctedlr,noneq=save)
def2svp m062x

BDP-NH2_ethanol_m062x_m062x_m062x

0 1
 C                  0.62194200   -1.20661200   -0.12111400
 C                  0.63919000    1.22415700    0.01443200
 C                 -0.11002200    0.01273600   -0.03424800
 C                  0.17073700   -2.54814100   -0.32310100
 C                  1.29951900   -3.35231700   -0.38502700
 C                  2.42336000   -2.50327100   -0.23090500
 H                  1.33993600   -4.42867200   -0.53734300
 C                  2.46564300    2.48884000    0.07563200
 C                  0.21188700    2.59053900    0.08243100
 C                  1.35481000    3.37232500    0.11302700
 H                  1.41597300    4.45727200    0.16392900
 N                  2.01691000   -1.23533200   -0.07276600
 N                  2.03733500    1.22095800    0.02246300
 B                  2.95578200   -0.02209500    0.10536200
 F                  3.59746400   -0.06890000    1.34093600
 F                  3.91010900    0.00808700   -0.90461900
 C                 -1.57827800    0.01680700   -0.00585600
 C                 -2.33232500    0.89294200   -0.81003900
 C                 -2.28998900   -0.86954800    0.82576700
 C                 -3.71912100    0.88732300   -0.78698900
 H                 -1.82007200    1.57275500   -1.49410600
 C                 -3.67630700   -0.87940900    0.86013700
 H                 -1.73993300   -1.55152200    1.47803100
 C                 -4.42573700    0.00211000    0.05352000
 H                 -4.27839600    1.56861500   -1.43192300
 H                 -4.20105700   -1.56852200    1.52547700
 H                 -0.82086200    2.92656700    0.11379400
 H                  3.53016000    2.72417700    0.09820500
 H                 -0.86748400   -2.85138300   -0.43128900
 H                  3.48331700   -2.75798200   -0.23875400
 N                 -5.79321200    0.02898900    0.11720000
 H                 -6.25924100   -0.77910900    0.51437300
 H                 -6.28849700    0.47240600   -0.64833500

