%nprocshared=32
%mem=64GB
%chk=00BDP-NH2_ethanol_wb97xd_wb97xd_wb97xd.chk
# opt freq wb97xd/def2svp pop=(full, orbitals=2, threshorbitals=1) scrf=(SMD, solvent=ethanol)

00BDP-NH2_ethanol_wb97xd_wb97xd_wb97xd

0 1
 C                  0.62213600   -1.21641400   -0.06367100
 C                  0.62348900    1.21933500    0.03074200
 C                 -0.09724000    0.00146600   -0.00997000
 C                  0.17475800   -2.54803200   -0.23883200
 C                  1.30629000   -3.35818100   -0.29157400
 C                  2.41596900   -2.50654400   -0.16809600
 H                  1.34200200   -4.43652400   -0.42073500
 C                  2.41956800    2.50924900    0.09205400
 C                  0.17916600    2.55468200    0.18216400
 C                  1.31202500    3.36463200    0.20687800
 H                  1.34949000    4.44573000    0.30999700
 N                  2.00838800   -1.23764900   -0.03371600
 N                  2.00952300    1.23812700   -0.01173600
 B                  2.94313500   -0.00067800    0.01148600
 F                  3.70258400   -0.00141900    1.17678700
 F                  3.78925400   -0.00042000   -1.09127300
 C                 -1.55746900    0.00029400   -0.00074500
 C                 -2.29542800    0.89987200   -0.79923900
 C                 -2.28076400   -0.90349800    0.80655400
 C                 -3.67751600    0.89222300   -0.80316600
 H                 -1.76805600    1.58395300   -1.46581300
 C                 -3.66266600   -0.90049500    0.83083900
 H                 -1.74087500   -1.58965700    1.46090000
 C                 -4.39852200   -0.00384100    0.02081200
 H                 -4.22779000    1.57515900   -1.45275000
 H                 -4.20122400   -1.58823900    1.48518000
 H                 -0.85549400    2.87267700    0.28109400
 H                  3.48081700    2.75545700    0.09586600
 H                 -0.86136800   -2.86145900   -0.33801300
 H                  3.47676600   -2.75401400   -0.18478300
 N                 -5.75151200    0.01197100    0.05056900
 H                 -6.24966800   -0.73223300    0.52279700
 H                 -6.25993000    0.55997300   -0.63212600



































































































































































































































































