%nprocshared=32
%mem=64GB
%oldchk=04BDP-NH2_ethanol_m062x_m062x_m062x.chk
%chk=05BDP-NH2_ethanol_m062x_m062x_m062x.chk
# m062x/def2tzvp TD=(NStates=3, Root=1) geom=check scrf=(SMD, solvent=ethanol) density pop=(full, orbitals=2, threshorbitals=1)

BDP-NH2_ethanol_m062x_m062x_m062x

0 1


