%nprocshared=32
%mem=64GB
%oldchk=00BDP-NH2_ethanol_m062x_m062x_m062x.chk
%chk=01BDP-NH2_ethanol_m062x_m062x_m062x.chk
# m062x/def2tzvp geom=check pop=(full, orbitals=2, threshorbitals=1) scrf=(SMD, solvent=ethanol)

BDP-NH2_ethanol_m062x_m062x_m062x

0 1






